
(set-logic ALL) 

(declare-datatype MyList ((Nil) (Cons (head Real) (tail MyList)) )) 
(declare-fun l0 () MyList) 
(declare-fun l1 () MyList) 
(declare-fun l2 () MyList) 
(declare-fun l3 () MyList) 
(declare-fun i0 () Real) 
(declare-fun i1 () Real) 
(assert (= l2 l1) )
(assert (and (is-Nil l3) (= l0 Nil) (= l1 l3) (is-Nil l2)) )
(assert (is-Cons Nil) )
(assert (= l1 l1) )
(assert (and (is-Cons Nil) (= l2 Nil) (= l3 Nil)) )
(assert (is-Cons l0) )
(assert (not (is-Nil Nil)) )
(assert (is-Nil Nil) )
(check-sat)
